p cnf 32 21
-1 25 -2 27 -3 20 29 0 
-4 9 -5 -6 30 0 
-2 27 -7 -8 29 0 
-3 20 29 0 
-9 4 -10 -11 30 0 
-12 30 0 
-3 20 -2 27 29 0 
-10 -6 30 0 
-13 24 -14 -3 20 29 0 
-15 21 -9 4 -10 -11 30 0 
-15 21 -9 4 30 0 
-7 -16 29 0 
-8 -7 29 0 
-17 -18 30 0 
-19 -20 3 30 0 
-21 15 -5 -11 30 0 
-2 27 -8 29 0 
-9 4 -22 -23 -24 13 31 0 
-25 1 -9 4 -26 -24 13 32 0 
-27 2 30 0 
-9 4 -28 30 0 
